0 626864 
1 626532 
2 623862 
3 623330 
4 622960 
5 618622 
6 616444 
7 616216 
8 615834 
9 615550 
10 614070 
11 609746 
12 608484 
13 608468 
14 606956 
15 606282 
16 606058 
17 605500 
18 605012 
19 604400 
20 601988 
21 601088 
22 600550 
23 597496 
24 596564 
25 592104 
26 592082 
27 589794 
28 589318 
29 587704 
30 586812 
31 586530 
32 584440 
33 581604 
34 578034 
35 574598 
36 574338 
37 574218 
38 573778 
39 569368 
40 568868 
41 568112 
42 567312 
43 566080 
44 562560 
45 562192 
46 560346 
47 557312 
48 556808 
49 554928 
50 551754 
51 550236 
52 547522 
53 543792 
54 543530 
55 543468 
56 543336 
57 542078 
58 540438 
59 540204 
60 537420 
61 533712 
62 527188 
63 524006 
64 520270 
65 516706 
66 512558 
67 511296 
68 510974 
69 510364 
70 508794 
71 507718 
72 507494 
73 507494 

